s td 15 66 80
b 1 1 2 3 4 5 6 7 8 9 10 11 12 13 14 15 16 18 19 20 21 22 23 24 25 27 29 30 31 32 33 34 35 38 39 40 41 42 43 44 45 46 48 49 50 53 54 55 56 57 58 62 63 65 66 67 68 69 71 72 73 75 76 77 78 79 80
b 2 1 2 3 4 6 7 8 9 10 11 12 13 14 15 16 18 19 20 21 22 23 24 25 27 29 30 31 32 33 34 35 38 39 40 41 42 43 44 45 46 48 49 50 52 53 54 55 56 57 58 62 63 65 66 67 68 69 71 72 73 75 76 77 78 79 80
b 3 1 2 3 4 6 7 8 9 10 11 12 13 14 15 16 18 19 21 22 23 24 25 27 29 30 31 32 33 34 35 38 39 40 41 42 43 44 45 46 48 49 50 52 53 54 55 56 57 58 61 62 63 65 66 67 68 69 71 72 73 75 76 77 78 79
b 4 1 2 3 4 7 8 9 10 12 13 14 15 16 17 18 21 23 24 25 27 29 30 31 32 33 34 35 38 39 40 41 42 43 44 45 46 48 49 50 52 53 54 55 56 57 58 61 62 63 65 66 67 69 71 72 73 75 76 77 78 79
b 5 1 2 3 4 9 10 12 15 17 21 23 24 25 27 29 30 31 32 33 34 35 38 39 40 42 43 45 46 48 49 50 51 52 53 54 55 56 57 58 61 62 63 66 67 69 71 72 73 75 76 77 78 79
b 6 1 2 4 9 15 21 23 24 25 27 29 31 33 34 35 40 42 43 46 48 49 51 52 53 54 55 56 59 61 63 66 67 71 75 76 79
b 7 1 2 4 6 8 9 10 11 12 14 18 19 20 21 22 23 24 25 27 30 35 39 42 44 47 48 49 50 52 54 65 66 69 72 77 78
b 8 1 2 3 4 5 6 7 9 10 11 12 13 14 15 16 18 19 20 21 22 23 24 25 27 29 30 31 32 33 34 35 38 39 40 41 42 43 44 45 46 48 49 50 53 54 55 56 57 58 62 63 65 66 67 68 69 71 72 73 74 75 76 77 78 79 80
b 9 1 2 3 4 5 6 7 9 10 11 12 13 14 15 16 18 19 20 22 23 24 25 27 29 30 31 32 33 34 35 38 39 40 41 42 43 44 45 46 48 49 50 53 54 55 56 57 58 62 63 64 65 66 67 68 69 71 72 73 74 75 76 77 78 79 80
b 10 2 3 4 5 6 7 9 10 11 12 13 14 15 16 18 19 20 22 23 24 25 27 28 29 30 31 32 33 34 35 38 39 40 41 42 43 44 45 46 48 49 50 53 54 55 56 57 58 62 63 64 65 66 67 68 69 72 73 74 75 76 77 78 79 80
b 11 3 4 5 6 7 9 10 11 12 13 15 18 19 20 22 23 24 25 26 27 28 30 31 32 33 34 35 38 39 40 41 42 43 44 45 46 48 49 53 54 56 57 58 62 63 64 65 66 67 68 69 72 73 74 76 77 78 79 80
b 12 3 4 5 7 9 11 12 13 15 18 19 20 22 23 24 26 27 28 30 31 32 33 34 35 36 38 39 41 42 43 44 45 48 49 53 54 56 57 58 62 63 65 66 67 68 69 72 73 74 76 77 78 79 80
b 13 3 4 5 7 11 12 13 15 18 22 23 27 28 30 31 32 33 35 36 39 41 42 43 44 45 49 53 56 57 58 62 63 65 66 67 70 73 74 79 80
b 14 2 3 5 7 10 13 19 30 31 34 35 37 38 40 41 42 43 44 45 46 49 50 53 55 62 63 64 67 69 73 74 75 80
b 15 3 5 6 10 12 18 19 21 24 25 27 29 30 31 38 40 42 43 44 46 49 55 56 58 60 62 65 66 69 71 72 74 76 78 79 80
1 2
1 8
2 3
2 7
3 4
4 5
5 6
8 9
8 15
9 10
9 14
10 11
11 12
12 13
